<instance format="XCSP3" type="COP">
  <variables>
    <array id="x" size="[30]"> 0 1 </array>
  </variables>
  <constraints>
    <sum>
      <list> x[] </list>
      <coeffs> 13 3 4 9 18 6 12 22 13 3 18 9 3 11 13 3 20 2 13 24 1 20 23 4 15 4 9 24 20 17 </coeffs>
      <condition> (le,100) </condition>
    </sum>
  </constraints>
  <objectives>
    <maximize type="sum">
      <list> x[] </list>
      <coeffs> 83 84 95 11 46 38 83 26 85 34 29 67 96 3 62 97 7 42 65 49 45 50 54 81 74 83 59 10 87 95 </coeffs>
    </maximize>
  </objectives>
</instance>
